c --- [ banner ] -------------------------------------------------------------
c 
c CaDiCaL Radically Simplified CDCL SAT Solver
c Copyright (c) 2016-2021 A. Biere, M. Fleury, N. Froleyks
c 
c Version 1.5.2 9c38a080b32c28d805e8e6ca21849856b0cda605
c g++ (Ubuntu 7.5.0-3ubuntu1~18.04) 7.5.0 -Wall -Wextra -O3 -DNDEBUG
c Wed Feb 16 23:15:36 EST 2022 Linux fac-vanhoeve01 5.4.0-99-generic x86_64
c 
c --- [ parsing input ] ------------------------------------------------------
c 
c reading DIMACS file from '<stdin>' (use '-h' for a list of common options)
c found 'p cnf 2692 7976' header
c parsed 7976 clauses in 0.00 seconds process time
c disconnecting from '<stdin>'
c after reading 106558 bytes 0.1 MB
c 
c --- [ options ] ------------------------------------------------------------
c 
c all options are set to their default value
c 
c --- [ solving ] ------------------------------------------------------------
c 
c time measured in process time since initialization
c 
c  seconds  reductions  redundant irredundant
c         MB    restarts       trail    variables
c          level   conflicts       glue      remaining
c 
c *  0.00  5  0 0   0    0    0  0% 0 7974 2618 97%
c {  0.01  5  0 0   0    0    0  0% 0 7974 2618 97%
c -  0.02  5 82 1  45  300  286 75% 9 7902 2618 97%
c -  0.05  5 38 2  55  901  675 82% 9 7902 2618 97%
c }  0.06  5 36 2  55 1003  774 83% 9 7902 2618 97%
c [  0.06  5  0 2  55 1003  774  0% 0 7902 2618 97%
c O  0.06  5 16 2  55 1004  775 97% 7 7902 2618 97%
c -  0.10  6 18 3  55 1801  958 93% 14 7902 2618 97%
c -  0.17  6 19 4  56 3001 1259 91% 14 7902 2618 97%
c ]  0.17  6 19 4  56 3005 1263 91% 14 7902 2618 97%
c {  0.18  6 36 4  56 3005 1263 83% 9 7902 2618 97%
c F  0.18  6 35 4  56 3006 1264 83% 9 7902 2618 97%
c s  0.19  6 33 4  74 3215 1451 84% 9 7902 2618 97%
c e  0.21  6 33 4  74 3215   61 84% 9 5682 885 33%
c s  0.22  6 33 4  74 3215   60 84% 9 5682 885 33%
c -  0.27  6 26 5 186 4501 1222 84% 9 5682 885 33%
c 2  0.30  6 26 5 229 5004 1697 84% 9 5682 885 33%
c p  0.30  6 26 5 229 5004 1704 84% 9 5682 885 33%
c #  0.34  6 24 5 340 6008 2634 84% 9 5682 885 33%
c -  0.36  6 24 6 405 6303 2186 83% 10 5682 885 33%
c 
c  seconds  reductions  redundant  irredundant
c         MB    restarts       trail     variables
c          level   conflicts       glue      remaining
c 
c }  0.39  6 24 6 441 7006 2825 84% 10 5682 885 33%
c [  0.39  6 19 6 441 7006 2825 277% 14 5682 885 33%
c -  0.46  6 21 7 442 8403 2667 197% 14 5682 885 33%
c I  0.54  6 22 7 443 10010 3991 161% 15 5682 885 33%
c -  0.59  6 24 8 444 10803 2963 151% 16 5682 885 33%
c -  0.74  7 25 9 446 13505 3365 131% 17 5682 885 33%
c s  0.77  7 25 9 446 13948 3727 129% 17 5682 885 33%
c s  0.78  7 25 9 446 13948 3724 129% 17 5682 885 33%
c ^  0.78  7 25 9 446 13948 3724 129% 17 5682 885 33%
c p  0.85  7 25 9 446 15005 4598 124% 17 5682 885 33%
c ]  0.85  7 25 9 446 15009 4600 124% 17 5682 885 33%
c {  0.85  7 24 9 446 15009 4600 84% 10 5682 885 33%
c B  0.85  7 24 9 446 15011 4602 84% 10 5682 885 33%
c -  0.91  7 21 10 458 16505 3709 75% 9 5682 885 33%
c -  1.07  6 20 11 884 19805 4562 76% 9 5682 885 33%
c W  1.14  6 20 11 1070 21012 5715 77% 10 5682 885 33%
c -  1.27  7 20 12 1281 23408 5307 79% 10 5682 885 33%
c -  1.47  7 20 13 1617 27308 5754 79% 10 5682 885 33%
c F  1.50  7 20 13 1695 28014 6418 79% 10 5682 885 33%
c p  1.60  7 20 13 1825 30006 8253 80% 10 5682 885 33%
c 
c  seconds  reductions     redundant  irredundant
c         MB     restarts         trail     variables
c          level      conflicts       glue      remaining
c 
c s  1.62  7 20 13 1835 30044 8253 80% 10 5682 885 33%
c w  1.63  7 20 13 1835 30044 8252 80% 10 5682 885 33%
c s  1.64  7 20 13 1835 30044 8250 80% 10 5682 885 33%
c ^  1.64  7 20 13 1835 30044 8250 80% 10 5682 885 33%
c }  1.70  7 20 13 1950 31011 9142 80% 10 5682 885 33%
c [  1.70  7 25 13 1950 31011 9142 124% 17 5682 885 33%
c -  1.72  7 25 14 1950 31510 6351 122% 17 5682 885 33%
c -  1.95  7 23 15 1953 36010 6226 112% 16 5682 885 33%
c B  1.95  7 23 15 1953 36016 6232 112% 16 5682 885 33%
c -  2.22  7 28 16 1956 40810 6478 106% 18 5682 885 33%
c W  2.50  7 30 16 1957 45018 10202 103% 20 5682 885 33%
c -  2.56  7 30 17 1957 45912 7083 102% 20 5682 885 33%
c p  2.83  7 29 17 1958 50006 10579 100% 20 5682 885 33%
c -  2.91  7 29 18 1958 51313 7102 100% 20 5682 885 33%
c s  2.93  7 29 18 1958 51506 7220 100% 20 5682 885 33%
c w  2.94  7 29 18 1958 51506 7217 100% 20 5682 885 33%
c s  2.96  7 29 18 1958 51506 7214 100% 20 5682 885 33%
c ^  2.96  7 29 18 1958 51506 7214 100% 20 5682 885 33%
c O  3.19  7 28 18 1959 55021 9790 99% 20 5682 885 33%
c -  3.30  8 28 19 1961 57014 7256 98% 19 5682 885 33%
c 
c  seconds  reductions      redundant  irredundant
c         MB     restarts          trail     variables
c          level      conflicts        glue      remaining
c 
c ]  3.65  8 27 19 1965 63015 10902 97% 19 5682 885 33%
c {  3.65  8 20 19 1965 63015 10902 80% 10 5682 885 33%
c -  3.65  9 20 20 1965 63015 6408 80% 10 5682 885 33%
c B  3.80  9 20 20 2255 66024 9137 81% 10 5682 885 33%
c -  3.97  9 20 21 2496 69315 8315 81% 10 5682 885 33%
c p  4.25  9 20 21 2777 75006 13565 82% 10 5682 885 33%
c -  4.31  9 20 22 2830 75915 9668 82% 10 5682 885 33%
c W  4.43  9 20 22 2960 78025 11594 82% 10 5682 885 33%
c s  4.47  9 20 22 3017 78333 11849 82% 10 5682 885 33%
c s  4.51  9 20 22 3017 78333 11844 82% 10 5682 885 33%
c ^  4.51  9 20 22 3017 78333 11844 82% 10 5682 885 33%
c -  4.74  9 20 23 3194 82817 10710 82% 10 5682 885 33%
c -  5.13 10 20 24 3698 90017 11321 82% 10 5682 885 33%
c #  5.18 10 19 24 3771 91026 12249 82% 10 5682 885 33%
c -  5.55  8 19 25 4301 97518 12099 82% 10 5682 885 33%
c p  5.98  8 19 25 4816 105006 19042 82% 10 5682 885 33%
c B  5.99  8 19 25 4817 105028 19061 82% 10 5682 885 33%
c -  6.01  9 19 26 4845 105320 12636 82% 10 5682 885 33%
c s  6.33  9 19 26 5294 110525 17422 83% 10 5682 885 33%
c w  6.36  9 19 26 5294 110525 17421 83% 10 5682 885 33%
c 
c  seconds  reductions      redundant  irredundant
c         MB     restarts          trail     variables
c          level      conflicts        glue      remaining
c 
c e  6.37  9 19 26 5294 110525 3896 83% 10 8118 567 21%
c s  6.39  9 19 26 5294 110525 3896 83% 10 8118 567 21%
c ^  6.39  9 19 26 5294 110525 3896 83% 10 8118 567 21%
c -  6.52  8 19 27 5508 113421 5286 84% 10 8118 567 21%
c W  6.88  8 19 27 5940 120031 11343 84% 10 8118 567 21%
c }  6.88  8 19 27 5940 120034 11346 84% 10 8118 567 21%
c 1  6.88  8 19 27 5940 120034 11346 84% 10 8118 567 21%
c 
c --- [ result ] -------------------------------------------------------------
c 
s SATISFIABLE
v -1 -2 -3 -4 -5 -6 -7 8 -9 10 -11 -12 -13 -14 -15 -16 -17 -18 -19 -20 -21 -22
v -23 24 -25 26 -27 28 -29 -30 31 -32 -33 -34 -35 -36 37 38 -39 -40 -41 -42
v -43 -44 -45 -46 47 -48 -49 -50 -51 -52 -53 54 55 56 -57 -58 59 -60 -61 62 63
v -64 -65 -66 -67 -68 -69 -70 -71 -72 -73 -74 -75 76 -77 -78 -79 -80 -81 82
v -83 -84 85 86 -87 -88 -89 -90 -91 -92 -93 -94 -95 -96 -97 -98 -99 -100 -101
v -102 -103 -104 -105 -106 -107 -108 109 -110 -111 -112 113 -114 -115 -116
v -117 -118 119 -120 121 -122 -123 -124 -125 -126 -127 -128 129 -130 -131 -132
v -133 -134 -135 -136 -137 -138 -139 140 -141 -142 -143 144 -145 -146 -147 148
v -149 -150 -151 -152 -153 -154 -155 156 -157 -158 -159 -160 -161 -162 -163
v -164 -165 -166 -167 -168 -169 -170 -171 -172 173 174 -175 -176 -177 -178
v -179 180 -181 182 -183 -184 -185 -186 -187 -188 -189 -190 -191 -192 193 -194
v 195 -196 -197 -198 -199 -200 -201 -202 -203 -204 -205 -206 -207 -208 -209
v -210 211 -212 -213 214 -215 216 -217 -218 -219 -220 -221 -222 223 -224 -225
v 226 -227 -228 -229 -230 -231 232 -233 -234 -235 -236 -237 -238 -239 240 241
v -242 -243 -244 -245 246 -247 -248 -249 -250 -251 252 -253 -254 255 -256 257
v 258 -259 -260 261 -262 263 264 -265 -266 -267 -268 269 270 271 -272 -273
v -274 -275 -276 -277 -278 -279 280 -281 -282 -283 284 -285 286 -287 -288 -289
v -290 291 -292 293 294 295 296 -297 -298 -299 300 301 302 303 -304 -305 306
v 307 -308 309 310 311 -312 313 -314 315 -316 -317 -318 -319 320 -321 -322 323
v -324 -325 326 327 328 329 330 331 332 333 334 335 336 337 338 339 340 341
v 342 343 344 345 346 347 348 349 350 351 352 353 354 355 356 357 358 359 360
v 361 362 363 364 365 366 367 368 369 370 371 372 373 374 375 376 377 378 379
v 380 381 382 383 384 385 386 387 388 389 390 391 392 393 394 395 396 397 398
v -399 -400 -401 -402 403 404 405 406 407 408 409 410 411 412 413 414 415 416
v 417 418 419 420 421 422 423 424 425 426 427 428 429 430 431 432 433 434 435
v 436 437 438 439 440 441 442 443 444 445 446 447 448 449 450 451 452 453 454
v 455 456 457 458 459 460 461 462 463 464 465 466 467 468 469 470 471 472 -473
v -474 -475 -476 -477 -478 479 480 481 482 483 484 485 486 487 488 489 490 491
v 492 493 494 495 496 497 498 499 500 501 502 503 504 505 506 507 508 509 510
v 511 512 513 514 515 516 517 518 519 520 521 522 523 524 525 526 527 528 529
v 530 531 532 533 534 535 536 537 538 539 540 541 542 543 544 545 546 -547
v -548 -549 -550 -551 -552 -553 554 555 556 557 558 559 560 561 562 563 564
v 565 566 567 568 569 570 571 572 573 574 575 576 577 578 579 580 581 582 583
v 584 585 586 587 588 589 590 591 592 593 594 595 596 597 598 599 600 601 602
v 603 604 605 606 607 608 609 610 611 612 613 614 615 616 617 618 619 620 -621
v -622 -623 -624 -625 -626 -627 -628 -629 -630 631 632 633 634 635 636 637 638
v 639 640 641 642 643 644 645 646 647 648 649 650 651 652 653 654 655 656 657
v 658 659 660 661 662 663 664 665 666 667 668 669 670 671 672 673 674 675 676
v 677 678 679 680 681 682 683 684 685 686 687 688 689 690 691 692 693 694 -695
v -696 -697 -698 -699 -700 -701 -702 -703 -704 -705 -706 707 708 709 710 711
v 712 713 714 715 716 717 718 719 720 721 722 723 724 725 726 727 728 729 730
v 731 732 733 734 735 736 737 738 739 740 741 742 743 744 745 746 747 748 749
v 750 751 752 753 754 755 756 757 758 759 760 761 762 763 764 765 766 767 768
v -769 -770 -771 -772 -773 -774 -775 -776 -777 -778 -779 -780 -781 782 783 784
v 785 786 787 788 789 790 791 792 793 794 795 796 797 798 799 800 801 802 803
v 804 805 806 807 808 809 810 811 812 813 814 815 816 817 818 819 820 821 822
v 823 824 825 826 827 828 829 830 831 832 833 834 835 836 837 838 839 840 841
v 842 -843 -844 -845 -846 -847 -848 -849 -850 -851 -852 -853 -854 -855 -856
v -857 -858 -859 -860 861 862 863 864 865 866 867 868 869 870 871 872 873 874
v 875 876 877 878 879 880 881 882 883 884 885 886 887 888 889 890 891 892 893
v 894 895 896 897 898 899 900 901 902 903 904 905 906 907 908 909 910 911 912
v 913 914 915 916 -917 -918 -919 -920 -921 -922 -923 -924 -925 -926 -927 -928
v -929 -930 -931 -932 -933 -934 -935 936 937 938 939 940 941 942 943 944 945
v 946 947 948 949 950 951 952 953 954 955 956 957 958 959 960 961 962 963 964
v 965 966 967 968 969 970 971 972 973 974 975 976 977 978 979 980 981 982 983
v 984 985 986 987 988 989 990 -991 -992 -993 -994 -995 -996 -997 -998 -999
v -1000 -1001 -1002 -1003 -1004 -1005 -1006 -1007 -1008 -1009 -1010 1011 1012
v 1013 1014 1015 1016 1017 1018 1019 1020 1021 1022 1023 1024 1025 1026 1027
v 1028 1029 1030 1031 1032 1033 1034 1035 1036 1037 1038 1039 1040 1041 1042
v 1043 1044 1045 1046 1047 1048 1049 1050 1051 1052 1053 1054 1055 1056 1057
v 1058 1059 1060 1061 1062 1063 1064 -1065 -1066 -1067 -1068 -1069 -1070 -1071
v -1072 -1073 -1074 -1075 -1076 -1077 -1078 -1079 -1080 -1081 -1082 -1083
v -1084 -1085 -1086 -1087 -1088 -1089 -1090 -1091 -1092 -1093 1094 1095 1096
v 1097 1098 1099 1100 1101 1102 1103 1104 1105 1106 1107 1108 1109 1110 1111
v 1112 1113 1114 1115 1116 1117 1118 1119 1120 1121 1122 1123 1124 1125 1126
v 1127 1128 1129 1130 1131 1132 1133 1134 1135 1136 1137 1138 -1139 -1140
v -1141 -1142 -1143 -1144 -1145 -1146 -1147 -1148 -1149 -1150 -1151 -1152
v -1153 -1154 -1155 -1156 -1157 -1158 -1159 -1160 -1161 -1162 -1163 -1164
v -1165 -1166 -1167 -1168 -1169 -1170 -1171 1172 1173 1174 1175 1176 1177 1178
v 1179 1180 1181 1182 1183 1184 1185 1186 1187 1188 1189 1190 1191 1192 1193
v 1194 1195 1196 1197 1198 1199 1200 1201 1202 1203 1204 1205 1206 1207 1208
v 1209 1210 1211 1212 -1213 -1214 -1215 -1216 -1217 -1218 -1219 -1220 -1221
v -1222 -1223 -1224 -1225 -1226 -1227 -1228 -1229 -1230 -1231 -1232 -1233
v -1234 -1235 -1236 -1237 -1238 -1239 -1240 -1241 -1242 -1243 -1244 -1245
v -1246 -1247 1248 1249 1250 1251 1252 1253 1254 1255 1256 1257 1258 1259 1260
v 1261 1262 1263 1264 1265 1266 1267 1268 1269 1270 1271 1272 1273 1274 1275
v 1276 1277 1278 1279 1280 1281 1282 1283 1284 1285 1286 -1287 -1288 -1289
v -1290 -1291 -1292 -1293 -1294 -1295 -1296 -1297 -1298 -1299 -1300 -1301
v -1302 -1303 -1304 -1305 -1306 -1307 -1308 -1309 -1310 -1311 -1312 -1313
v -1314 -1315 -1316 -1317 -1318 -1319 -1320 -1321 -1322 -1323 -1324 -1325
v -1326 1327 1328 1329 1330 1331 1332 1333 1334 1335 1336 1337 1338 1339 1340
v 1341 1342 1343 1344 1345 1346 1347 1348 1349 1350 1351 1352 1353 1354 1355
v 1356 1357 1358 1359 1360 -1361 -1362 -1363 -1364 -1365 -1366 -1367 -1368
v -1369 -1370 -1371 -1372 -1373 -1374 -1375 -1376 -1377 -1378 -1379 -1380
v -1381 -1382 -1383 -1384 -1385 -1386 -1387 -1388 -1389 -1390 -1391 -1392
v -1393 -1394 -1395 -1396 -1397 -1398 -1399 -1400 -1401 -1402 1403 1404 1405
v 1406 1407 1408 1409 1410 1411 1412 1413 1414 1415 1416 1417 1418 1419 1420
v 1421 1422 1423 1424 1425 1426 1427 1428 1429 1430 1431 1432 1433 1434 -1435
v -1436 -1437 -1438 -1439 -1440 -1441 -1442 -1443 -1444 -1445 -1446 -1447
v -1448 -1449 -1450 -1451 -1452 -1453 -1454 -1455 -1456 -1457 -1458 -1459
v -1460 -1461 -1462 -1463 -1464 -1465 -1466 -1467 -1468 -1469 -1470 -1471
v -1472 -1473 -1474 -1475 -1476 -1477 1478 1479 1480 1481 1482 1483 1484 1485
v 1486 1487 1488 1489 1490 1491 1492 1493 1494 1495 1496 1497 1498 1499 1500
v 1501 1502 1503 1504 1505 1506 1507 1508 -1509 -1510 -1511 -1512 -1513 -1514
v -1515 -1516 -1517 -1518 -1519 -1520 -1521 -1522 -1523 -1524 -1525 -1526
v -1527 -1528 -1529 -1530 -1531 -1532 -1533 -1534 -1535 -1536 -1537 -1538
v -1539 -1540 -1541 -1542 -1543 -1544 -1545 -1546 -1547 -1548 -1549 -1550
v -1551 -1552 1553 1554 1555 1556 1557 1558 1559 1560 1561 1562 1563 1564 1565
v 1566 1567 1568 1569 1570 1571 1572 1573 1574 1575 1576 1577 1578 1579 1580
v 1581 1582 -1583 -1584 -1585 -1586 -1587 -1588 -1589 -1590 -1591 -1592 -1593
v -1594 -1595 -1596 -1597 -1598 -1599 -1600 -1601 -1602 -1603 -1604 -1605
v -1606 -1607 -1608 -1609 -1610 -1611 -1612 -1613 -1614 -1615 -1616 -1617
v -1618 -1619 -1620 -1621 -1622 -1623 -1624 -1625 -1626 -1627 1628 1629 1630
v 1631 1632 1633 1634 1635 1636 1637 1638 1639 1640 1641 1642 1643 1644 1645
v 1646 1647 1648 1649 1650 1651 1652 1653 1654 1655 1656 -1657 -1658 -1659
v -1660 -1661 -1662 -1663 -1664 -1665 -1666 -1667 -1668 -1669 -1670 -1671
v -1672 -1673 -1674 -1675 -1676 -1677 -1678 -1679 -1680 -1681 -1682 -1683
v -1684 -1685 -1686 -1687 -1688 -1689 -1690 -1691 -1692 -1693 -1694 -1695
v -1696 -1697 -1698 -1699 -1700 -1701 -1702 -1703 -1704 -1705 1706 1707 1708
v 1709 1710 1711 1712 1713 1714 1715 1716 1717 1718 1719 1720 1721 1722 1723
v 1724 1725 1726 1727 1728 1729 1730 -1731 -1732 -1733 -1734 -1735 -1736 -1737
v -1738 -1739 -1740 -1741 -1742 -1743 -1744 -1745 -1746 -1747 -1748 -1749
v -1750 -1751 -1752 -1753 -1754 -1755 -1756 -1757 -1758 -1759 -1760 -1761
v -1762 -1763 -1764 -1765 -1766 -1767 -1768 -1769 -1770 -1771 -1772 -1773
v -1774 -1775 -1776 -1777 -1778 -1779 -1780 1781 1782 1783 1784 1785 1786 1787
v 1788 1789 1790 1791 1792 1793 1794 1795 1796 1797 1798 1799 1800 1801 1802
v 1803 1804 -1805 -1806 -1807 -1808 -1809 -1810 -1811 -1812 -1813 -1814 -1815
v -1816 -1817 -1818 -1819 -1820 -1821 -1822 -1823 -1824 -1825 -1826 -1827
v -1828 -1829 -1830 -1831 -1832 -1833 -1834 -1835 -1836 -1837 -1838 -1839
v -1840 -1841 -1842 -1843 -1844 -1845 -1846 -1847 -1848 -1849 -1850 -1851
v -1852 -1853 -1854 -1855 1856 1857 1858 1859 1860 1861 1862 1863 1864 1865
v 1866 1867 1868 1869 1870 1871 1872 1873 1874 1875 1876 1877 1878 -1879 -1880
v -1881 -1882 -1883 -1884 -1885 -1886 -1887 -1888 -1889 -1890 -1891 -1892
v -1893 -1894 -1895 -1896 -1897 -1898 -1899 -1900 -1901 -1902 -1903 -1904
v -1905 -1906 -1907 -1908 -1909 -1910 -1911 -1912 -1913 -1914 -1915 -1916
v -1917 -1918 -1919 -1920 -1921 -1922 -1923 -1924 -1925 -1926 -1927 -1928
v -1929 -1930 1931 1932 1933 1934 1935 1936 1937 1938 1939 1940 1941 1942 1943
v 1944 1945 1946 1947 1948 1949 1950 1951 1952 -1953 -1954 -1955 -1956 -1957
v -1958 -1959 -1960 -1961 -1962 -1963 -1964 -1965 -1966 -1967 -1968 -1969
v -1970 -1971 -1972 -1973 -1974 -1975 -1976 -1977 -1978 -1979 -1980 -1981
v -1982 -1983 -1984 -1985 -1986 -1987 -1988 -1989 -1990 -1991 -1992 -1993
v -1994 -1995 -1996 -1997 -1998 -1999 -2000 -2001 -2002 -2003 -2004 -2005
v -2006 -2007 2008 2009 2010 2011 2012 2013 2014 2015 2016 2017 2018 2019 2020
v 2021 2022 2023 2024 2025 2026 -2027 -2028 -2029 -2030 -2031 -2032 -2033
v -2034 -2035 -2036 -2037 -2038 -2039 -2040 -2041 -2042 -2043 -2044 -2045
v -2046 -2047 -2048 -2049 -2050 -2051 -2052 -2053 -2054 -2055 -2056 -2057
v -2058 -2059 -2060 -2061 -2062 -2063 -2064 -2065 -2066 -2067 -2068 -2069
v -2070 -2071 -2072 -2073 -2074 -2075 -2076 -2077 -2078 -2079 -2080 -2081
v -2082 2083 2084 2085 2086 2087 2088 2089 2090 2091 2092 2093 2094 2095 2096
v 2097 2098 2099 2100 -2101 -2102 -2103 -2104 -2105 -2106 -2107 -2108 -2109
v -2110 -2111 -2112 -2113 -2114 -2115 -2116 -2117 -2118 -2119 -2120 -2121
v -2122 -2123 -2124 -2125 -2126 -2127 -2128 -2129 -2130 -2131 -2132 -2133
v -2134 -2135 -2136 -2137 -2138 -2139 -2140 -2141 -2142 -2143 -2144 -2145
v -2146 -2147 -2148 -2149 -2150 -2151 -2152 -2153 -2154 -2155 -2156 -2157
v -2158 2159 2160 2161 2162 2163 2164 2165 2166 2167 2168 2169 2170 2171 2172
v 2173 2174 -2175 -2176 -2177 -2178 -2179 -2180 -2181 -2182 -2183 -2184 -2185
v -2186 -2187 -2188 -2189 -2190 -2191 -2192 -2193 -2194 -2195 -2196 -2197
v -2198 -2199 -2200 -2201 -2202 -2203 -2204 -2205 -2206 -2207 -2208 -2209
v -2210 -2211 -2212 -2213 -2214 -2215 -2216 -2217 -2218 -2219 -2220 -2221
v -2222 -2223 -2224 -2225 -2226 -2227 -2228 -2229 -2230 -2231 -2232 -2233 2234
v 2235 2236 2237 2238 2239 2240 2241 2242 2243 2244 2245 2246 2247 2248 -2249
v -2250 -2251 -2252 -2253 -2254 -2255 -2256 -2257 -2258 -2259 -2260 -2261
v -2262 -2263 -2264 -2265 -2266 -2267 -2268 -2269 -2270 -2271 -2272 -2273
v -2274 -2275 -2276 -2277 -2278 -2279 -2280 -2281 -2282 -2283 -2284 -2285
v -2286 -2287 -2288 -2289 -2290 -2291 -2292 -2293 -2294 -2295 -2296 -2297
v -2298 -2299 -2300 -2301 -2302 -2303 -2304 -2305 -2306 -2307 -2308 2309 2310
v 2311 2312 2313 2314 2315 2316 2317 2318 2319 2320 2321 2322 -2323 -2324
v -2325 -2326 -2327 -2328 -2329 -2330 -2331 -2332 -2333 -2334 -2335 -2336
v -2337 -2338 -2339 -2340 -2341 -2342 -2343 -2344 -2345 -2346 -2347 -2348
v -2349 -2350 -2351 -2352 -2353 -2354 -2355 -2356 -2357 -2358 -2359 -2360
v -2361 -2362 -2363 -2364 -2365 -2366 -2367 -2368 -2369 -2370 -2371 -2372
v -2373 -2374 -2375 -2376 -2377 -2378 -2379 -2380 -2381 -2382 -2383 -2384 2385
v 2386 2387 2388 2389 2390 2391 2392 2393 2394 2395 2396 -2397 -2398 -2399
v -2400 -2401 -2402 -2403 -2404 -2405 -2406 -2407 -2408 -2409 -2410 -2411
v -2412 -2413 -2414 -2415 -2416 -2417 -2418 -2419 -2420 -2421 -2422 -2423
v -2424 -2425 -2426 -2427 -2428 -2429 -2430 -2431 -2432 -2433 -2434 -2435
v -2436 -2437 -2438 -2439 -2440 -2441 -2442 -2443 -2444 -2445 -2446 -2447
v -2448 -2449 -2450 -2451 -2452 -2453 -2454 -2455 -2456 -2457 -2458 -2459
v -2460 2461 2462 2463 2464 2465 2466 2467 2468 2469 2470 -2471 -2472 -2473
v -2474 -2475 -2476 -2477 -2478 -2479 -2480 -2481 -2482 -2483 -2484 -2485
v -2486 -2487 -2488 -2489 -2490 -2491 -2492 -2493 -2494 -2495 -2496 -2497
v -2498 -2499 -2500 -2501 -2502 -2503 -2504 -2505 -2506 -2507 -2508 -2509
v -2510 -2511 -2512 -2513 -2514 -2515 -2516 -2517 -2518 -2519 -2520 -2521
v -2522 -2523 -2524 -2525 -2526 -2527 -2528 -2529 -2530 -2531 -2532 -2533
v -2534 -2535 -2536 -2537 -2538 -2539 2540 2541 2542 2543 2544 -2545 -2546
v -2547 -2548 -2549 -2550 -2551 -2552 -2553 -2554 -2555 -2556 -2557 -2558
v -2559 -2560 -2561 -2562 -2563 -2564 -2565 -2566 -2567 -2568 -2569 -2570
v -2571 -2572 -2573 -2574 -2575 -2576 -2577 -2578 -2579 -2580 -2581 -2582
v -2583 -2584 -2585 -2586 -2587 -2588 -2589 -2590 -2591 -2592 -2593 -2594
v -2595 -2596 -2597 -2598 -2599 -2600 -2601 -2602 -2603 -2604 -2605 -2606
v -2607 -2608 -2609 -2610 -2611 -2612 -2613 -2614 -2615 -2616 2617 2618 -2619
v -2620 -2621 -2622 -2623 -2624 -2625 -2626 -2627 -2628 -2629 -2630 -2631
v -2632 -2633 -2634 -2635 -2636 -2637 -2638 -2639 -2640 -2641 -2642 -2643
v -2644 -2645 -2646 -2647 -2648 -2649 -2650 -2651 -2652 -2653 -2654 -2655
v -2656 -2657 -2658 -2659 -2660 -2661 -2662 -2663 -2664 -2665 -2666 -2667
v -2668 -2669 -2670 -2671 -2672 -2673 -2674 -2675 -2676 -2677 -2678 -2679
v -2680 -2681 -2682 -2683 -2684 -2685 -2686 -2687 -2688 -2689 -2690 -2691
v -2692 0
c 
c --- [ run-time profiling ] -------------------------------------------------
c 
c process time taken by individual solving procedures
c (percentage relative to process time for solving)
c 
c         6.60   95.98% search
c         4.04   58.80% unstable
c         2.45   35.57% stable
c         0.28    4.02% simplify
c         0.11    1.58% walk
c         0.10    1.50% subsume
c         0.07    0.97% vivify
c         0.05    0.79% elim
c         0.02    0.24% probe
c         0.01    0.16% ternary
c         0.00    0.07% parse
c         0.00    0.02% lucky
c   =================================
c         6.88   99.92% solve
c 
c last line shows process time for solving
c (percentage relative to total process time)
c 
c --- [ statistics ] ---------------------------------------------------------
c 
c chronological:             28356        23.62 %  of conflicts
c conflicts:                120034     17454.33    per second
c decisions:                252240     36678.60    per second
c eliminated:                 2051        76.19 %  of all variables
c fixed:                        74         2.75 %  of all variables
c learned:                  117560        97.94 %  per conflict
c learned_lits:            4265688       100.00 %  learned literals
c minimized:                     0         0.00 %  learned literals
c shrunken:                1402730        32.88 %  learned literals
c minishrunken:             397290         9.31 %  learned literals
c propagations:           15471834         2.25 M  per second
c reduced:                   78955        65.78 %  per conflict
c rephased:                     15      8002.27    interval
c restarts:                   5940        20.21    interval
c stabilizing:                   3        35.00 %  of conflicts
c subsumed:                  12333         4.58 %  of all clauses
c strengthened:               2398         0.89 %  of all clauses
c vivified:                     18         0.01 %  of all clauses
c walked:                        4     30008.50    interval
c weakened:                   8794         2.88    average size
c 
c seconds are measured in process time for solving
c 
c --- [ resources ] ----------------------------------------------------------
c 
c total process time since initialization:         6.88    seconds
c total real time since initialization:            6.89    seconds
c maximum resident set size of process:           10.18    MB
c 
c --- [ shutting down ] ------------------------------------------------------
c 
c exit 10
